\ENCODING=ISO-8859-1
\Problem name: IloCplex

Minimize
 obj1: x1 + 24.81201 x2 + 0.714285731315613
Subject To
 c1:  x1 + 5 x2 <= 99999.2857142687
 c2:  x1 + 3.048 x2 >= 0.9732
 c3:  x1 + 8.048 x2 <= 99999.2857142687
 c4:  x1 + 7.62 x2 >= 1.278
 c5:  x1 + 12.62 x2 <= 99999.2857142687
 c6:  x1 + 9.51738 x2 >= 1.404492
 c7:  x1 + 14.51738 x2 <= 99999.2857142687
 c8:  x1 + 10.29463 x2 >= 3.61820270641327
 c9:  x1 + 15.29463 x2 <= 99999.2857142687
 c10: x1 + 12.19201 x2 >= 3.74469470641327
 c11: x1 + 17.19201 x2 <= 99999.2857142687
 c12: x1 + 16.76401 x2 >= 4.04949470641327
 c13: x1 + 21.76401 x2 <= 99999.2857142687
 c14: x1 + 19.81201 x2 >= 4.25269470641327
 c15: x1 + 24.81201 x2 <= 99999.2857142687
Bounds
 0.77 <= x1 <= 100000
 0.0666666666666667 <= x2 <= 0.333333333333333
End
